c Generated from Nested-Unit Petri Net model NUPN2/4344.nupn
c (C) 2020 Pierre Bouvier and Hubert Garavel at INRIA Grenoble Rhône-Alpes
c Produced by the CONVECS research team (http://convecs.inria.fr)
c Licensed under CC-BY Creative Commons Attribution 4.0 International License
c (license terms available from http://creativecommons.org/licenses/by/4.0)
p cnf 102 481
1 0
4 5 0
7 8 9 0
10 11 12 0
13 14 15 0
16 17 18 0
19 20 21 0
22 23 24 0
25 26 27 0
28 29 30 0
31 32 33 0
34 35 36 0
37 38 39 0
40 41 42 0
43 44 45 0
46 47 48 0
49 50 51 0
52 53 54 0
55 56 57 0
58 59 60 0
61 62 63 0
64 65 66 0
67 68 69 0
70 71 72 0
73 74 75 0
76 77 78 0
79 80 81 0
82 83 84 0
85 86 87 0
88 89 90 0
91 92 93 0
94 95 96 0
97 98 99 0
100 101 102 0
-1 -91 0
-2 -92 0
-3 -93 0
-55 -91 0
-56 -92 0
-57 -93 0
-1 -52 0
-2 -53 0
-3 -54 0
-55 -64 0
-56 -65 0
-57 -66 0
-34 -70 0
-35 -71 0
-36 -72 0
-1 -10 0
-2 -11 0
-3 -12 0
-58 -94 0
-59 -95 0
-60 -96 0
-43 -88 0
-44 -89 0
-45 -90 0
-43 -67 0
-44 -68 0
-45 -69 0
-37 -70 0
-38 -71 0
-39 -72 0
-49 -76 0
-50 -77 0
-51 -78 0
-46 -70 0
-47 -71 0
-48 -72 0
-1 -94 0
-2 -95 0
-3 -96 0
-61 -64 0
-62 -65 0
-63 -66 0
-52 -91 0
-53 -92 0
-54 -93 0
-55 -100 0
-56 -101 0
-57 -102 0
-1 -13 0
-2 -14 0
-3 -15 0
-40 -91 0
-41 -92 0
-42 -93 0
-37 -76 0
-38 -77 0
-39 -78 0
-58 -85 0
-59 -86 0
-60 -87 0
-43 -85 0
-44 -86 0
-45 -87 0
-61 -82 0
-62 -83 0
-63 -84 0
-49 -88 0
-50 -89 0
-51 -90 0
-37 -67 0
-38 -68 0
-39 -69 0
-52 -85 0
-53 -86 0
-54 -87 0
-49 -79 0
-50 -80 0
-51 -81 0
-55 -82 0
-56 -83 0
-57 -84 0
-52 -94 0
-53 -95 0
-54 -96 0
-1 -40 0
-2 -41 0
-3 -42 0
-40 -85 0
-41 -86 0
-42 -87 0
-1 -28 0
-2 -29 0
-3 -30 0
-61 -100 0
-62 -101 0
-63 -102 0
-37 -73 0
-38 -74 0
-39 -75 0
-34 -82 0
-35 -83 0
-36 -84 0
-46 -94 0
-47 -95 0
-48 -96 0
-43 -76 0
-44 -77 0
-45 -78 0
-61 -73 0
-62 -74 0
-63 -75 0
-49 -97 0
-50 -98 0
-51 -99 0
-46 -79 0
-47 -80 0
-48 -81 0
-1 -79 0
-2 -80 0
-3 -81 0
-55 -79 0
-56 -80 0
-57 -81 0
-40 -67 0
-41 -68 0
-42 -69 0
-34 -64 0
-35 -65 0
-36 -66 0
-40 -76 0
-41 -77 0
-42 -78 0
-43 -100 0
-44 -101 0
-45 -102 0
-1 -31 0
-2 -32 0
-3 -33 0
-58 -73 0
-59 -74 0
-60 -75 0
-43 -73 0
-44 -74 0
-45 -75 0
-37 -64 0
-38 -65 0
-39 -66 0
-46 -64 0
-47 -65 0
-48 -66 0
-1 -82 0
-2 -83 0
-3 -84 0
-61 -70 0
-62 -71 0
-63 -72 0
-55 -88 0
-56 -89 0
-57 -90 0
-1 -55 0
-2 -56 0
-3 -57 0
-34 -67 0
-35 -68 0
-36 -69 0
-58 -97 0
-59 -98 0
-60 -99 0
-43 -97 0
-44 -98 0
-45 -99 0
-61 -94 0
-62 -95 0
-63 -96 0
-34 -100 0
-35 -101 0
-36 -102 0
-46 -100 0
-47 -101 0
-48 -102 0
-49 -73 0
-50 -74 0
-51 -75 0
-1 -97 0
-2 -98 0
-3 -99 0
-55 -76 0
-56 -77 0
-57 -78 0
-49 -70 0
-50 -71 0
-51 -72 0
-1 -58 0
-2 -59 0
-3 -60 0
-1 -16 0
-2 -17 0
-3 -18 0
-40 -88 0
-41 -89 0
-42 -90 0
-58 -88 0
-59 -89 0
-60 -90 0
-34 -76 0
-35 -77 0
-36 -78 0
-43 -82 0
-44 -83 0
-45 -84 0
-61 -79 0
-62 -80 0
-63 -81 0
-46 -73 0
-47 -74 0
-48 -75 0
-1 -73 0
-2 -74 0
-3 -75 0
-1 -100 0
-2 -101 0
-3 -102 0
-55 -73 0
-56 -74 0
-57 -75 0
-52 -97 0
-53 -98 0
-54 -99 0
-1 -67 0
-2 -68 0
-3 -69 0
-40 -82 0
-41 -83 0
-42 -84 0
-1 -19 0
-2 -20 0
-3 -21 0
-40 -97 0
-41 -98 0
-42 -99 0
-58 -79 0
-59 -80 0
-60 -81 0
-34 -79 0
-35 -80 0
-36 -81 0
-46 -97 0
-47 -98 0
-48 -99 0
-43 -79 0
-44 -80 0
-45 -81 0
-49 -94 0
-50 -95 0
-51 -96 0
-46 -82 0
-47 -83 0
-48 -84 0
-1 -76 0
-2 -77 0
-3 -78 0
-52 -73 0
-53 -74 0
-54 -75 0
-49 -85 0
-50 -86 0
-51 -87 0
-1 -43 0
-2 -44 0
-3 -45 0
-1 -70 0
-2 -71 0
-3 -72 0
-40 -73 0
-41 -74 0
-42 -75 0
-37 -94 0
-38 -95 0
-39 -96 0
-1 -34 0
-2 -35 0
-3 -36 0
-58 -76 0
-59 -77 0
-60 -78 0
-37 -85 0
-38 -86 0
-39 -87 0
-34 -88 0
-35 -89 0
-36 -90 0
-46 -88 0
-47 -89 0
-48 -90 0
-1 -85 0
-2 -86 0
-3 -87 0
-61 -67 0
-62 -68 0
-63 -69 0
-52 -76 0
-53 -77 0
-54 -78 0
-49 -64 0
-50 -65 0
-51 -66 0
-55 -97 0
-56 -98 0
-57 -99 0
-1 -46 0
-2 -47 0
-3 -48 0
-1 -4 0
-2 -5 0
-3 -6 0
-40 -100 0
-41 -101 0
-42 -102 0
-43 -94 0
-44 -95 0
-45 -96 0
-1 -88 0
-2 -89 0
-3 -90 0
-49 -67 0
-50 -68 0
-51 -69 0
-1 -61 0
-2 -62 0
-3 -63 0
-40 -64 0
-41 -65 0
-42 -66 0
-1 -7 0
-2 -8 0
-3 -9 0
-58 -91 0
-59 -92 0
-60 -93 0
-34 -73 0
-35 -74 0
-36 -75 0
-37 -100 0
-38 -101 0
-39 -102 0
-43 -91 0
-44 -92 0
-45 -93 0
-46 -76 0
-47 -77 0
-48 -78 0
-43 -64 0
-44 -65 0
-45 -66 0
-52 -79 0
-53 -80 0
-54 -81 0
-46 -67 0
-47 -68 0
-48 -69 0
-52 -88 0
-53 -89 0
-54 -90 0
-1 -64 0
-2 -65 0
-3 -66 0
-40 -79 0
-41 -80 0
-42 -81 0
-55 -70 0
-56 -71 0
-57 -72 0
-1 -22 0
-2 -23 0
-3 -24 0
-40 -94 0
-41 -95 0
-42 -96 0
-58 -82 0
-59 -83 0
-60 -84 0
-61 -85 0
-62 -86 0
-63 -87 0
-49 -91 0
-50 -92 0
-51 -93 0
-46 -85 0
-47 -86 0
-48 -87 0
-52 -82 0
-53 -83 0
-54 -84 0
-49 -82 0
-50 -83 0
-51 -84 0
-55 -85 0
-56 -86 0
-57 -87 0
-55 -67 0
-56 -68 0
-57 -69 0
-1 -25 0
-2 -26 0
-3 -27 0
-37 -82 0
-38 -83 0
-39 -84 0
-34 -85 0
-35 -86 0
-36 -87 0
-46 -91 0
-47 -92 0
-48 -93 0
-61 -76 0
-62 -77 0
-63 -78 0
-49 -100 0
-50 -101 0
-51 -102 0
-55 -94 0
-56 -95 0
-57 -96 0
-1 -49 0
-2 -50 0
-3 -51 0
-40 -70 0
-41 -71 0
-42 -72 0
-37 -88 0
-38 -89 0
-39 -90 0
-1 -37 0
-2 -38 0
-3 -39 0
-61 -88 0
-62 -89 0
-63 -90 0
-37 -79 0
-38 -80 0
-39 -81 0
-34 -94 0
-35 -95 0
-36 -96 0
-43 -70 0
-44 -71 0
-45 -72 0
